input = [|
   4, 7, 8, 1, 6, 2, 3, 8, 8, 8
 | 1, 7, 8, 4, 1, 5, 6, 1, 1, 4
 | 3, 2, 6, 5, 6, 4, 5, 1, 2, 2
 | 4, 3, 7, 1, 5, 5, 1, 4, 1, 4
 | 3, 3, 7, 7, 1, 5, 4, 8, 8, 6
 | 7, 8, 8, 2, 3, 1, 4, 4, 5, 5
 | 6, 4, 2, 1, 3, 4, 8, 6, 8, 1
 | 7, 1, 7, 5, 4, 2, 4, 2, 8, 7
 | 5, 4, 8, 8, 2, 4, 2, 1, 8, 4
 | 2, 4, 4, 8, 5, 6, 8, 2, 6, 1

|];
